18
8
15 16 11 3 9 14
7 8 9 5 3 11 13 1 12 6 2 15
15 1 3 6 0 11 2 9 14 12 7 8 16 4 5 13 17
17 15 6 13 3 12
10 3 15 13 14 9 17
3 10 17 11 14 5 2 16 13 6 4 8
14 15 13 1 2 10 3 5 17 11 16 7 6 0
0 14 10 2 4 15 6 13 3 8 11
